922528
0 10 8732
10 34 5412
34 9 6355
9 20 5744
20 6 17005
6 35 11794
35 12 26785
12 27 6411
27 28 17517
28 37 745
37 22 7449
22 33 31609
33 24 30137
24 30 7859
30 38 9087
38 29 6375
29 36 941
36 25 14546
25 32 15458
32 11 3967
11 4 38538
4 31 3290
31 19 24202
19 23 65657
23 21 45980
21 3 23621
3 18 26533
18 39 13572
39 17 18404
17 26 12606
26 1 15288
1 15 57771
15 2 71701
2 13 30026
13 16 42391
16 14 45489
14 7 26227
7 8 54349
8 5 47658
5 0 25297
